p tdp 53 52
47 13
15 53
5 28
6 48
17 8
53 52
16 46
5 3
1 38
28 6
14 39
42 19
41 34
32 30
31 53
51 37
49 35
24 36
9 21
38 34
51 10
22 31
23 24
11 2
27 26
29 25
47 49
21 35
5 29
40 42
32 18
20 2
27 45
37 50
43 52
7 53
11 36
32 33
8 32
44 12
4 16
1 3
19 26
12 37
50 38
39 30
20 40
46 41
53 28
18 41
9 20
7 24
